c "random instance"
p edges 150 2171
e 1 8
e 1 13
e 1 21
e 1 25
e 1 27
e 1 37
e 1 43
e 1 54
e 1 55
e 1 56
e 1 81
e 1 82
e 1 84
e 1 90
e 1 97
e 1 99
e 1 101
e 1 106
e 1 107
e 1 113
e 1 134
e 2 3
e 2 6
e 2 15
e 2 19
e 2 24
e 2 26
e 2 41
e 2 43
e 2 49
e 2 59
e 2 60
e 2 68
e 2 70
e 2 72
e 2 76
e 2 83
e 2 86
e 2 88
e 2 96
e 2 106
e 2 113
e 2 123
e 2 129
e 2 133
e 2 136
e 2 141
e 3 22
e 3 26
e 3 34
e 3 45
e 3 50
e 3 51
e 3 55
e 3 62
e 3 73
e 3 75
e 3 80
e 3 95
e 3 99
e 3 107
e 3 110
e 3 111
e 3 115
e 3 130
e 3 136
e 3 137
e 3 139
e 3 143
e 3 144
e 3 149
e 4 10
e 4 29
e 4 32
e 4 39
e 4 41
e 4 48
e 4 50
e 4 51
e 4 52
e 4 63
e 4 76
e 4 80
e 4 90
e 4 93
e 4 96
e 4 99
e 4 100
e 4 106
e 4 111
e 4 112
e 4 113
e 4 118
e 4 120
e 4 135
e 4 138
e 4 140
e 5 14
e 5 29
e 5 42
e 5 58
e 5 75
e 5 79
e 5 83
e 5 91
e 5 96
e 5 99
e 5 107
e 5 109
e 5 115
e 5 120
e 5 128
e 5 130
e 5 133
e 5 136
e 5 145
e 6 13
e 6 19
e 6 20
e 6 23
e 6 24
e 6 31
e 6 32
e 6 33
e 6 40
e 6 50
e 6 51
e 6 53
e 6 62
e 6 63
e 6 65
e 6 73
e 6 75
e 6 76
e 6 83
e 6 85
e 6 93
e 6 100
e 6 107
e 6 111
e 6 115
e 6 120
e 6 121
e 6 122
e 6 125
e 6 128
e 6 131
e 6 147
e 7 8
e 7 11
e 7 18
e 7 20
e 7 24
e 7 33
e 7 34
e 7 36
e 7 37
e 7 52
e 7 56
e 7 57
e 7 67
e 7 70
e 7 79
e 7 84
e 7 89
e 7 92
e 7 94
e 7 97
e 7 101
e 7 105
e 7 115
e 7 117
e 7 121
e 7 122
e 7 125
e 7 130
e 7 133
e 7 141
e 7 143
e 7 144
e 7 147
e 8 10
e 8 13
e 8 14
e 8 17
e 8 20
e 8 25
e 8 51
e 8 56
e 8 57
e 8 60
e 8 63
e 8 66
e 8 72
e 8 75
e 8 79
e 8 80
e 8 86
e 8 90
e 8 97
e 8 99
e 8 105
e 8 112
e 8 116
e 8 120
e 8 125
e 8 129
e 8 137
e 8 140
e 9 10
e 9 19
e 9 26
e 9 27
e 9 30
e 9 31
e 9 46
e 9 47
e 9 49
e 9 51
e 9 52
e 9 55
e 9 66
e 9 67
e 9 69
e 9 71
e 9 73
e 9 77
e 9 81
e 9 82
e 9 85
e 9 87
e 9 88
e 9 101
e 9 104
e 9 108
e 9 112
e 9 121
e 9 124
e 9 125
e 9 137
e 9 150
e 10 16
e 10 25
e 10 28
e 10 29
e 10 32
e 10 48
e 10 60
e 10 61
e 10 66
e 10 68
e 10 83
e 10 88
e 10 91
e 10 94
e 10 97
e 10 99
e 10 103
e 10 106
e 10 107
e 10 117
e 10 121
e 10 125
e 10 126
e 10 134
e 10 144
e 10 147
e 10 148
e 11 15
e 11 29
e 11 31
e 11 36
e 11 47
e 11 48
e 11 53
e 11 57
e 11 63
e 11 74
e 11 79
e 11 81
e 11 82
e 11 86
e 11 90
e 11 92
e 11 94
e 11 98
e 11 99
e 11 101
e 11 106
e 11 107
e 11 112
e 11 114
e 11 120
e 11 124
e 11 129
e 11 130
e 11 131
e 11 138
e 11 145
e 12 13
e 12 17
e 12 19
e 12 26
e 12 29
e 12 32
e 12 35
e 12 36
e 12 39
e 12 40
e 12 44
e 12 50
e 12 51
e 12 59
e 12 63
e 12 68
e 12 69
e 12 74
e 12 75
e 12 80
e 12 81
e 12 83
e 12 84
e 12 85
e 12 86
e 12 91
e 12 96
e 12 97
e 12 98
e 12 109
e 12 126
e 12 127
e 12 131
e 12 134
e 12 137
e 12 138
e 12 140
e 12 146
e 12 149
e 12 150
e 13 16
e 13 18
e 13 19
e 13 32
e 13 57
e 13 65
e 13 67
e 13 68
e 13 70
e 13 72
e 13 74
e 13 80
e 13 99
e 13 101
e 13 104
e 13 114
e 13 119
e 13 123
e 13 126
e 13 128
e 13 129
e 13 133
e 13 134
e 13 135
e 13 136
e 13 146
e 14 15
e 14 18
e 14 42
e 14 46
e 14 51
e 14 54
e 14 56
e 14 62
e 14 72
e 14 82
e 14 89
e 14 94
e 14 98
e 14 103
e 14 107
e 14 108
e 14 112
e 14 119
e 14 122
e 14 123
e 14 126
e 14 130
e 14 133
e 14 148
e 15 17
e 15 19
e 15 20
e 15 21
e 15 36
e 15 37
e 15 39
e 15 41
e 15 52
e 15 53
e 15 57
e 15 59
e 15 62
e 15 66
e 15 67
e 15 88
e 15 89
e 15 94
e 15 96
e 15 97
e 15 100
e 15 108
e 15 112
e 15 115
e 15 124
e 15 134
e 15 141
e 15 146
e 15 148
e 16 19
e 16 20
e 16 30
e 16 37
e 16 43
e 16 45
e 16 49
e 16 52
e 16 55
e 16 59
e 16 74
e 16 79
e 16 101
e 16 102
e 16 104
e 16 107
e 16 109
e 16 117
e 16 122
e 16 130
e 16 147
e 17 20
e 17 22
e 17 23
e 17 29
e 17 31
e 17 37
e 17 45
e 17 48
e 17 50
e 17 53
e 17 54
e 17 59
e 17 60
e 17 73
e 17 76
e 17 79
e 17 80
e 17 85
e 17 87
e 17 88
e 17 91
e 17 102
e 17 114
e 17 132
e 17 137
e 17 140
e 17 143
e 17 144
e 17 145
e 17 146
e 17 147
e 18 22
e 18 24
e 18 30
e 18 32
e 18 33
e 18 34
e 18 37
e 18 43
e 18 56
e 18 63
e 18 64
e 18 65
e 18 67
e 18 79
e 18 86
e 18 93
e 18 94
e 18 101
e 18 111
e 18 112
e 18 113
e 18 115
e 18 126
e 18 147
e 18 148
e 18 149
e 19 24
e 19 27
e 19 48
e 19 54
e 19 56
e 19 61
e 19 68
e 19 72
e 19 75
e 19 76
e 19 78
e 19 81
e 19 95
e 19 108
e 19 110
e 19 113
e 19 122
e 19 125
e 19 135
e 19 138
e 19 142
e 19 146
e 20 39
e 20 43
e 20 49
e 20 50
e 20 51
e 20 62
e 20 66
e 20 68
e 20 71
e 20 74
e 20 80
e 20 86
e 20 88
e 20 89
e 20 90
e 20 95
e 20 106
e 20 107
e 20 111
e 20 112
e 20 114
e 20 116
e 20 117
e 20 123
e 20 128
e 20 133
e 20 136
e 20 139
e 20 141
e 20 143
e 20 145
e 20 146
e 20 148
e 20 150
e 21 24
e 21 29
e 21 35
e 21 41
e 21 42
e 21 48
e 21 51
e 21 57
e 21 58
e 21 60
e 21 61
e 21 64
e 21 65
e 21 66
e 21 69
e 21 73
e 21 85
e 21 97
e 21 109
e 21 110
e 21 115
e 21 128
e 21 132
e 21 133
e 21 134
e 21 139
e 21 148
e 22 28
e 22 30
e 22 43
e 22 52
e 22 71
e 22 75
e 22 77
e 22 78
e 22 82
e 22 85
e 22 96
e 22 98
e 22 100
e 22 111
e 22 119
e 22 123
e 22 124
e 22 134
e 22 137
e 22 138
e 22 145
e 22 146
e 22 147
e 23 33
e 23 34
e 23 35
e 23 46
e 23 49
e 23 52
e 23 57
e 23 59
e 23 61
e 23 74
e 23 78
e 23 80
e 23 86
e 23 98
e 23 99
e 23 100
e 23 107
e 23 121
e 23 137
e 23 142
e 23 144
e 23 145
e 24 25
e 24 33
e 24 36
e 24 37
e 24 40
e 24 51
e 24 52
e 24 53
e 24 64
e 24 67
e 24 69
e 24 80
e 24 81
e 24 86
e 24 95
e 24 101
e 24 102
e 24 103
e 24 113
e 24 115
e 24 120
e 24 121
e 24 122
e 24 123
e 24 125
e 24 128
e 24 131
e 24 136
e 24 146
e 25 37
e 25 41
e 25 43
e 25 44
e 25 47
e 25 49
e 25 61
e 25 62
e 25 76
e 25 82
e 25 85
e 25 88
e 25 101
e 25 107
e 25 108
e 25 110
e 25 117
e 25 119
e 25 126
e 25 127
e 25 132
e 25 140
e 25 142
e 25 144
e 25 145
e 26 30
e 26 34
e 26 38
e 26 39
e 26 68
e 26 90
e 26 92
e 26 96
e 26 104
e 26 106
e 26 111
e 26 118
e 26 121
e 26 125
e 26 130
e 26 139
e 26 142
e 26 143
e 26 144
e 27 36
e 27 41
e 27 46
e 27 47
e 27 56
e 27 59
e 27 65
e 27 77
e 27 86
e 27 87
e 27 88
e 27 89
e 27 91
e 27 92
e 27 96
e 27 100
e 27 110
e 27 120
e 27 124
e 27 125
e 27 126
e 27 130
e 27 135
e 27 137
e 27 138
e 27 142
e 28 31
e 28 34
e 28 39
e 28 45
e 28 47
e 28 48
e 28 49
e 28 54
e 28 55
e 28 56
e 28 57
e 28 68
e 28 72
e 28 81
e 28 82
e 28 88
e 28 89
e 28 96
e 28 98
e 28 99
e 28 110
e 28 115
e 28 116
e 28 118
e 28 126
e 28 134
e 28 137
e 28 138
e 28 145
e 28 148
e 29 30
e 29 39
e 29 66
e 29 71
e 29 77
e 29 84
e 29 85
e 29 87
e 29 88
e 29 89
e 29 90
e 29 96
e 29 107
e 29 111
e 29 113
e 29 120
e 29 121
e 29 124
e 29 125
e 29 145
e 30 32
e 30 33
e 30 39
e 30 49
e 30 52
e 30 55
e 30 63
e 30 76
e 30 83
e 30 86
e 30 87
e 30 97
e 30 101
e 30 103
e 30 104
e 30 105
e 30 106
e 30 112
e 30 114
e 30 118
e 30 120
e 30 122
e 30 124
e 30 129
e 30 131
e 30 133
e 30 134
e 30 136
e 30 137
e 30 138
e 30 143
e 30 144
e 30 146
e 30 150
e 31 32
e 31 48
e 31 56
e 31 57
e 31 61
e 31 62
e 31 64
e 31 74
e 31 78
e 31 82
e 31 101
e 31 108
e 31 111
e 31 113
e 31 127
e 31 137
e 31 139
e 31 143
e 31 144
e 31 148
e 32 34
e 32 47
e 32 53
e 32 55
e 32 58
e 32 63
e 32 67
e 32 74
e 32 75
e 32 76
e 32 80
e 32 101
e 32 106
e 32 107
e 32 109
e 32 110
e 32 113
e 32 117
e 32 126
e 32 134
e 32 137
e 32 142
e 32 143
e 32 148
e 33 34
e 33 35
e 33 45
e 33 46
e 33 54
e 33 56
e 33 58
e 33 62
e 33 63
e 33 66
e 33 68
e 33 72
e 33 77
e 33 93
e 33 99
e 33 103
e 33 108
e 33 112
e 33 117
e 33 118
e 33 121
e 33 122
e 33 126
e 33 131
e 33 132
e 33 136
e 33 139
e 33 146
e 33 148
e 33 149
e 34 42
e 34 44
e 34 48
e 34 52
e 34 54
e 34 55
e 34 59
e 34 72
e 34 76
e 34 77
e 34 79
e 34 83
e 34 85
e 34 87
e 34 89
e 34 95
e 34 110
e 34 119
e 34 128
e 34 141
e 34 150
e 35 48
e 35 49
e 35 60
e 35 64
e 35 66
e 35 67
e 35 71
e 35 79
e 35 84
e 35 88
e 35 95
e 35 99
e 35 102
e 35 109
e 35 114
e 35 116
e 35 119
e 35 130
e 35 135
e 35 136
e 35 139
e 35 150
e 36 37
e 36 58
e 36 60
e 36 62
e 36 65
e 36 66
e 36 69
e 36 77
e 36 78
e 36 81
e 36 83
e 36 86
e 36 90
e 36 95
e 36 96
e 36 102
e 36 106
e 36 113
e 36 114
e 36 115
e 36 121
e 36 139
e 37 40
e 37 41
e 37 44
e 37 60
e 37 61
e 37 63
e 37 67
e 37 72
e 37 83
e 37 87
e 37 92
e 37 94
e 37 105
e 37 106
e 37 107
e 37 121
e 37 136
e 37 147
e 37 150
e 38 40
e 38 44
e 38 50
e 38 69
e 38 72
e 38 76
e 38 77
e 38 78
e 38 87
e 38 89
e 38 91
e 38 92
e 38 98
e 38 99
e 38 100
e 38 104
e 38 108
e 38 112
e 38 113
e 38 114
e 38 132
e 38 135
e 38 138
e 38 149
e 39 52
e 39 60
e 39 75
e 39 76
e 39 89
e 39 91
e 39 95
e 39 103
e 39 113
e 39 115
e 39 122
e 39 123
e 39 133
e 39 138
e 39 141
e 39 145
e 39 148
e 40 47
e 40 50
e 40 54
e 40 58
e 40 63
e 40 65
e 40 72
e 40 76
e 40 84
e 40 86
e 40 90
e 40 92
e 40 93
e 40 95
e 40 99
e 40 100
e 40 104
e 40 108
e 40 120
e 40 124
e 40 130
e 40 135
e 40 141
e 40 144
e 40 145
e 41 42
e 41 45
e 41 47
e 41 50
e 41 56
e 41 58
e 41 64
e 41 74
e 41 82
e 41 88
e 41 92
e 41 101
e 41 102
e 41 105
e 41 107
e 41 109
e 41 117
e 41 118
e 41 120
e 41 124
e 41 126
e 41 129
e 41 133
e 41 136
e 41 137
e 41 139
e 41 140
e 41 141
e 41 144
e 41 145
e 41 146
e 42 53
e 42 54
e 42 56
e 42 59
e 42 75
e 42 76
e 42 78
e 42 82
e 42 83
e 42 103
e 42 104
e 42 108
e 42 114
e 42 116
e 42 121
e 42 124
e 42 137
e 42 145
e 42 148
e 43 48
e 43 54
e 43 59
e 43 65
e 43 68
e 43 71
e 43 76
e 43 77
e 43 78
e 43 81
e 43 85
e 43 92
e 43 95
e 43 97
e 43 99
e 43 103
e 43 112
e 43 118
e 43 131
e 43 135
e 43 136
e 43 139
e 44 55
e 44 61
e 44 63
e 44 68
e 44 73
e 44 75
e 44 82
e 44 113
e 44 119
e 44 120
e 44 122
e 44 124
e 44 127
e 44 129
e 44 136
e 44 139
e 44 144
e 44 147
e 44 149
e 45 46
e 45 47
e 45 49
e 45 58
e 45 60
e 45 64
e 45 73
e 45 74
e 45 82
e 45 83
e 45 85
e 45 86
e 45 90
e 45 92
e 45 96
e 45 99
e 45 100
e 45 101
e 45 105
e 45 107
e 45 116
e 45 118
e 45 121
e 45 122
e 45 126
e 45 127
e 45 136
e 45 138
e 46 50
e 46 54
e 46 57
e 46 59
e 46 62
e 46 66
e 46 68
e 46 71
e 46 89
e 46 90
e 46 91
e 46 93
e 46 95
e 46 101
e 46 103
e 46 104
e 46 110
e 46 112
e 46 114
e 46 123
e 46 126
e 46 130
e 46 141
e 46 145
e 47 55
e 47 60
e 47 69
e 47 73
e 47 82
e 47 84
e 47 90
e 47 91
e 47 92
e 47 95
e 47 104
e 47 105
e 47 110
e 47 111
e 47 113
e 47 120
e 47 125
e 47 131
e 47 139
e 47 143
e 47 145
e 47 149
e 47 150
e 48 54
e 48 55
e 48 77
e 48 80
e 48 93
e 48 110
e 48 112
e 48 116
e 48 117
e 48 122
e 48 131
e 48 138
e 48 146
e 48 149
e 49 50
e 49 51
e 49 53
e 49 56
e 49 57
e 49 60
e 49 67
e 49 70
e 49 72
e 49 74
e 49 76
e 49 101
e 49 103
e 49 120
e 49 123
e 49 127
e 49 129
e 49 131
e 49 135
e 49 138
e 49 142
e 50 54
e 50 62
e 50 86
e 50 93
e 50 101
e 50 102
e 50 104
e 50 114
e 50 119
e 50 122
e 50 125
e 50 133
e 50 138
e 50 140
e 50 147
e 51 68
e 51 85
e 51 89
e 51 90
e 51 93
e 51 94
e 51 95
e 51 97
e 51 99
e 51 100
e 51 102
e 51 120
e 51 132
e 51 135
e 51 140
e 51 142
e 52 56
e 52 64
e 52 74
e 52 76
e 52 78
e 52 83
e 52 85
e 52 113
e 52 117
e 52 118
e 52 119
e 52 121
e 52 123
e 52 126
e 52 127
e 52 130
e 52 134
e 52 142
e 52 144
e 52 146
e 53 57
e 53 58
e 53 70
e 53 77
e 53 79
e 53 80
e 53 85
e 53 93
e 53 102
e 53 113
e 53 122
e 53 125
e 53 126
e 53 134
e 53 138
e 53 141
e 53 142
e 53 145
e 53 147
e 54 56
e 54 59
e 54 66
e 54 69
e 54 73
e 54 76
e 54 86
e 54 96
e 54 97
e 54 100
e 54 105
e 54 109
e 54 112
e 54 115
e 54 131
e 54 133
e 54 137
e 54 141
e 54 145
e 55 56
e 55 63
e 55 67
e 55 70
e 55 71
e 55 74
e 55 77
e 55 82
e 55 90
e 55 94
e 55 99
e 55 105
e 55 119
e 55 121
e 55 123
e 55 135
e 55 139
e 55 141
e 55 143
e 56 60
e 56 62
e 56 73
e 56 86
e 56 91
e 56 92
e 56 104
e 56 105
e 56 106
e 56 108
e 56 116
e 56 117
e 56 119
e 56 123
e 56 128
e 56 135
e 56 136
e 56 145
e 57 62
e 57 67
e 57 77
e 57 83
e 57 85
e 57 86
e 57 87
e 57 89
e 57 101
e 57 104
e 57 107
e 57 111
e 57 116
e 57 117
e 57 124
e 57 134
e 57 136
e 57 137
e 58 61
e 58 66
e 58 67
e 58 72
e 58 77
e 58 101
e 58 104
e 58 111
e 58 117
e 58 120
e 58 122
e 58 123
e 58 131
e 58 132
e 58 133
e 58 134
e 58 137
e 58 139
e 58 145
e 58 146
e 58 150
e 59 60
e 59 61
e 59 63
e 59 65
e 59 69
e 59 73
e 59 78
e 59 81
e 59 85
e 59 105
e 59 111
e 59 114
e 59 116
e 59 128
e 59 130
e 59 135
e 59 139
e 59 140
e 59 146
e 59 147
e 59 148
e 60 67
e 60 71
e 60 73
e 60 79
e 60 86
e 60 90
e 60 91
e 60 93
e 60 94
e 60 98
e 60 107
e 60 108
e 60 112
e 60 114
e 60 119
e 60 124
e 60 130
e 60 133
e 60 137
e 61 64
e 61 71
e 61 76
e 61 77
e 61 79
e 61 80
e 61 83
e 61 91
e 61 104
e 61 109
e 61 110
e 61 123
e 61 127
e 61 128
e 61 130
e 61 132
e 61 143
e 61 150
e 62 64
e 62 70
e 62 71
e 62 72
e 62 79
e 62 84
e 62 86
e 62 89
e 62 92
e 62 94
e 62 112
e 62 118
e 62 122
e 62 125
e 62 132
e 62 136
e 62 138
e 62 141
e 62 150
e 63 75
e 63 81
e 63 85
e 63 86
e 63 87
e 63 102
e 63 105
e 63 106
e 63 109
e 63 115
e 63 116
e 63 119
e 63 120
e 63 139
e 64 68
e 64 70
e 64 73
e 64 87
e 64 88
e 64 94
e 64 98
e 64 106
e 64 110
e 64 121
e 64 123
e 64 132
e 64 137
e 64 138
e 64 139
e 65 69
e 65 74
e 65 91
e 65 93
e 65 94
e 65 95
e 65 97
e 65 103
e 65 115
e 65 119
e 65 121
e 65 125
e 65 127
e 65 129
e 65 135
e 65 139
e 65 141
e 65 146
e 65 147
e 66 68
e 66 76
e 66 86
e 66 88
e 66 93
e 66 103
e 66 105
e 66 111
e 66 118
e 66 120
e 66 122
e 66 123
e 66 137
e 67 79
e 67 90
e 67 93
e 67 97
e 67 102
e 67 103
e 67 106
e 67 113
e 67 117
e 67 118
e 67 124
e 67 128
e 67 136
e 67 138
e 67 149
e 67 150
e 68 79
e 68 82
e 68 83
e 68 88
e 68 98
e 68 101
e 68 102
e 68 103
e 68 107
e 68 113
e 68 121
e 68 122
e 68 129
e 68 130
e 68 133
e 68 138
e 68 139
e 68 141
e 68 147
e 69 71
e 69 72
e 69 77
e 69 78
e 69 84
e 69 89
e 69 96
e 69 100
e 69 101
e 69 127
e 69 131
e 69 137
e 69 145
e 69 150
e 70 71
e 70 76
e 70 77
e 70 79
e 70 80
e 70 84
e 70 87
e 70 88
e 70 95
e 70 99
e 70 108
e 70 117
e 70 121
e 70 122
e 70 138
e 71 74
e 71 83
e 71 99
e 71 106
e 71 110
e 71 115
e 71 124
e 71 125
e 71 127
e 71 129
e 71 133
e 71 135
e 71 140
e 71 141
e 72 84
e 72 86
e 72 92
e 72 96
e 72 105
e 72 106
e 72 114
e 72 116
e 72 127
e 72 130
e 72 138
e 72 142
e 72 144
e 73 79
e 73 85
e 73 92
e 73 93
e 73 100
e 73 105
e 73 113
e 73 117
e 73 118
e 73 119
e 73 125
e 73 144
e 73 150
e 74 79
e 74 82
e 74 83
e 74 84
e 74 85
e 74 87
e 74 96
e 74 98
e 74 102
e 74 103
e 74 109
e 74 120
e 74 141
e 74 143
e 74 145
e 74 149
e 75 83
e 75 87
e 75 94
e 75 95
e 75 96
e 75 106
e 75 107
e 75 108
e 75 109
e 75 113
e 75 126
e 75 137
e 75 139
e 75 141
e 75 143
e 75 146
e 75 149
e 75 150
e 76 79
e 76 85
e 76 102
e 76 111
e 76 124
e 76 125
e 76 128
e 76 134
e 76 137
e 76 139
e 76 142
e 76 149
e 77 78
e 77 92
e 77 111
e 77 112
e 77 125
e 77 126
e 77 130
e 77 132
e 77 135
e 77 137
e 77 141
e 77 144
e 77 145
e 77 146
e 78 92
e 78 99
e 78 101
e 78 105
e 78 108
e 78 113
e 78 115
e 78 120
e 78 123
e 78 124
e 78 136
e 78 138
e 78 140
e 78 143
e 79 81
e 79 85
e 79 87
e 79 88
e 79 93
e 79 94
e 79 95
e 79 100
e 79 101
e 79 104
e 79 115
e 79 123
e 79 125
e 79 137
e 79 140
e 79 150
e 80 82
e 80 83
e 80 91
e 80 105
e 80 108
e 80 116
e 80 126
e 80 129
e 80 131
e 80 133
e 80 134
e 80 140
e 80 142
e 80 143
e 80 147
e 81 82
e 81 87
e 81 113
e 81 118
e 81 124
e 81 136
e 81 141
e 81 147
e 81 148
e 82 84
e 82 86
e 82 89
e 82 104
e 82 110
e 82 114
e 82 116
e 82 131
e 82 135
e 82 137
e 82 138
e 82 139
e 82 140
e 82 141
e 82 147
e 83 101
e 83 103
e 83 122
e 83 123
e 83 127
e 83 128
e 83 132
e 83 136
e 83 140
e 83 145
e 83 147
e 84 93
e 84 95
e 84 99
e 84 105
e 84 111
e 84 112
e 84 113
e 84 122
e 84 124
e 84 126
e 84 139
e 84 141
e 84 142
e 84 145
e 84 148
e 85 89
e 85 108
e 85 113
e 85 116
e 85 123
e 85 125
e 85 139
e 85 145
e 86 95
e 86 98
e 86 105
e 86 108
e 86 113
e 86 124
e 86 129
e 86 136
e 86 137
e 86 138
e 86 142
e 87 91
e 87 109
e 87 110
e 87 117
e 87 119
e 87 136
e 87 138
e 87 145
e 87 148
e 88 91
e 88 94
e 88 95
e 88 97
e 88 106
e 88 107
e 88 118
e 88 120
e 88 125
e 88 140
e 88 146
e 88 147
e 88 148
e 89 91
e 89 94
e 89 96
e 89 97
e 89 107
e 89 112
e 89 113
e 89 114
e 89 115
e 89 125
e 89 127
e 89 135
e 89 137
e 89 138
e 89 140
e 89 147
e 90 99
e 90 104
e 90 107
e 90 111
e 90 121
e 90 123
e 90 124
e 90 125
e 90 131
e 90 142
e 90 147
e 90 148
e 90 150
e 91 92
e 91 93
e 91 100
e 91 107
e 91 118
e 91 119
e 91 120
e 91 121
e 91 132
e 91 134
e 91 136
e 91 140
e 91 143
e 91 145
e 92 94
e 92 95
e 92 101
e 92 108
e 92 110
e 92 111
e 92 114
e 92 125
e 92 127
e 92 133
e 92 134
e 93 105
e 93 120
e 93 122
e 93 124
e 93 126
e 93 143
e 93 149
e 94 96
e 94 115
e 94 119
e 94 130
e 94 142
e 94 143
e 94 147
e 95 96
e 95 101
e 95 104
e 95 106
e 95 110
e 95 111
e 95 118
e 95 133
e 95 141
e 95 143
e 95 146
e 95 150
e 96 101
e 96 112
e 96 117
e 96 121
e 96 125
e 96 131
e 96 136
e 96 143
e 96 147
e 97 105
e 97 115
e 97 118
e 97 120
e 97 129
e 97 131
e 97 132
e 97 134
e 97 139
e 97 142
e 97 149
e 97 150
e 98 99
e 98 103
e 98 109
e 98 112
e 98 122
e 98 135
e 98 141
e 98 149
e 98 150
e 99 103
e 99 110
e 99 116
e 99 117
e 99 121
e 99 122
e 99 124
e 99 127
e 99 137
e 99 140
e 100 102
e 100 122
e 100 127
e 100 128
e 100 131
e 100 132
e 100 136
e 100 141
e 101 103
e 101 114
e 101 127
e 101 136
e 101 137
e 101 139
e 101 142
e 101 145
e 101 149
e 102 108
e 102 112
e 102 121
e 102 123
e 102 136
e 102 138
e 103 111
e 103 117
e 103 118
e 103 128
e 103 136
e 103 138
e 104 107
e 104 110
e 104 116
e 104 117
e 104 124
e 104 128
e 104 149
e 105 123
e 105 124
e 105 136
e 105 138
e 105 139
e 105 141
e 106 114
e 106 125
e 106 131
e 106 135
e 107 113
e 107 127
e 107 137
e 108 117
e 108 131
e 108 135
e 108 140
e 108 143
e 108 145
e 108 149
e 109 111
e 109 134
e 109 143
e 109 145
e 109 149
e 109 150
e 110 113
e 110 121
e 110 130
e 110 133
e 110 138
e 110 140
e 110 148
e 111 112
e 111 123
e 111 125
e 111 140
e 111 141
e 112 117
e 112 118
e 112 122
e 112 141
e 112 147
e 112 149
e 112 150
e 113 115
e 113 121
e 113 128
e 113 133
e 113 136
e 113 138
e 113 140
e 113 141
e 114 132
e 114 133
e 114 139
e 114 144
e 114 146
e 114 149
e 115 118
e 115 120
e 115 121
e 115 122
e 115 131
e 115 134
e 115 140
e 115 141
e 115 145
e 115 147
e 115 148
e 115 149
e 116 131
e 117 120
e 117 124
e 117 125
e 117 128
e 117 136
e 117 137
e 117 146
e 117 147
e 117 148
e 117 149
e 118 119
e 118 123
e 118 126
e 118 142
e 118 146
e 118 150
e 119 130
e 119 132
e 119 134
e 119 144
e 119 147
e 119 150
e 120 123
e 120 129
e 120 130
e 120 131
e 120 139
e 120 140
e 120 144
e 121 130
e 121 135
e 121 138
e 121 143
e 122 131
e 122 133
e 122 147
e 123 125
e 123 147
e 124 128
e 124 135
e 124 137
e 124 145
e 124 147
e 125 131
e 126 132
e 126 135
e 126 139
e 127 128
e 127 131
e 127 136
e 127 137
e 127 139
e 127 148
e 128 131
e 128 142
e 128 143
e 128 149
e 129 133
e 129 136
e 129 138
e 129 141
e 129 145
e 130 132
e 130 133
e 130 139
e 130 141
e 130 143
e 130 147
e 130 149
e 131 141
e 131 146
e 131 149
e 132 139
e 132 142
e 133 134
e 133 135
e 133 141
e 134 135
e 134 139
e 134 141
e 134 150
e 135 141
e 135 150
e 136 139
e 136 140
e 136 141
e 136 149
e 137 144
e 137 146
e 137 150
e 138 139
e 138 140
e 138 144
e 138 145
e 138 148
e 139 140
e 141 142
e 141 147
e 141 150
e 142 143
e 142 150
e 143 144
e 143 145
e 143 146
e 144 148
e 145 149
e 146 150
e 149 150
